# Objective value = 10
WA1n 1
WA1p 0
WA2n 0
WA2p 0
WB1n 0
WB1p 1
WB2n 0
WB2p 0
WC1n 2
WC1p 0
WD1n 0
WD1p 2
WE1n 3
WE1p 0
WE2n 0
WE2p 0
WT1n 0
WT1p 1
WT2n 0
WT2p 0
100 102
a 1
b 1
c 1
d 1
e 1
f 1
g 0
h 0
i 1
j 1
